; benchmark generated from python API
(set-info :status unknown)
(declare-fun DISJ_W_S2_R_S2 () Bool)
(declare-fun DISJ_W_S2_R_S1 () Bool)
(declare-fun R_E1_V4 () Bool)
(declare-fun W_S1_V4 () Bool)
(declare-fun R_E1_V5 () Bool)
(declare-fun W_S1_V5 () Bool)
(declare-fun W_S2_V5 () Bool)
(declare-fun W_S2_V2 () Bool)
(declare-fun W_S2_V3 () Bool)
(declare-fun W_S2_V1 () Bool)
(declare-fun R_S2_V4 () Bool)
(declare-fun R_S2_V5 () Bool)
(declare-fun R_S2_V2 () Bool)
(declare-fun R_S2_V3 () Bool)
(declare-fun R_S2_V1 () Bool)
(declare-fun R_S1_V4 () Bool)
(declare-fun R_S1_V5 () Bool)
(declare-fun R_S1_V2 () Bool)
(declare-fun R_S1_V3 () Bool)
(declare-fun R_S1_V1 () Bool)
(declare-fun R_E1_V2 () Bool)
(declare-fun DISJ_W_S2_R_E1 () Bool)
(declare-fun DISJ_W_S1_W_S2 () Bool)
(declare-fun R_E1_V3 () Bool)
(declare-fun DISJ_W_S1_R_S2 () Bool)
(declare-fun DISJ_W_S1_R_S1 () Bool)
(declare-fun W_S2_V4 () Bool)
(declare-fun W_S1_V3 () Bool)
(declare-fun W_S1_V2 () Bool)
(declare-fun W_S1_V1 () Bool)
(declare-fun R_E1_V1 () Bool)
(declare-fun DISJ_W_S1_R_E1 () Bool)
(assert
 (let (($x4012 (and DISJ_W_S2_R_S1 DISJ_W_S2_R_S2)))
 (let (($x2696 (not $x4012)))
 (let (($x109 (not (and W_S1_V4 R_E1_V4))))
 (let (($x5084 (not (and W_S1_V5 R_E1_V5))))
 (let (($x3628 (forall ((V3_0 Int) )(forall ((V2_0 Int) )(forall ((V5_0 Int) )(forall ((V4_0 Int) )(forall ((MW_S1_V1 Bool) )(forall ((MW_S1_V3 Bool) )(forall ((MW_S1_V2 Bool) )(forall ((MW_S1_V5 Bool) )(forall ((MW_S1_V4 Bool) )(forall ((MW_S2_V1 Bool) )(forall ((MW_S2_V3 Bool) )(forall ((MW_S2_V2 Bool) )(forall ((MW_S2_V5 Bool) )(forall ((MW_S2_V4 Bool) )(forall ((S1_V1_!6074 Int) )(forall ((S1_V1_!6084 Int) )(forall ((S1_V1_!6095 Int) )(forall ((S1_V1_!6100 Int) )(forall ((S2_V5_!6082 Int) )(forall ((S2_V5_!6092 Int) )(forall ((S2_V5_!6109 Int) )(forall ((S2_V5_!6114 Int) )(forall ((S1_V3_!6075 Int) )(forall ((S1_V3_!6085 Int) )(forall ((S1_V3_!6096 Int) )(forall ((S1_V3_!6101 Int) )(forall ((S1_V2_!6076 Int) )(forall ((S1_V2_!6086 Int) )(forall ((S1_V2_!6097 Int) )(forall ((S1_V2_!6102 Int) )(forall ((E1_!6073 Int) )(forall ((E1_!6094 Int) )(forall ((E1_!6105 Int) )(forall ((S2_V4_!6083 Int) )(forall ((S2_V4_!6093 Int) )(forall ((S2_V4_!6110 Int) )(forall ((S2_V4_!6115 Int) )(forall ((S1_V5_!6077 Int) )(forall ((S1_V5_!6087 Int) )(forall ((S1_V5_!6098 Int) )(forall ((S1_V5_!6103 Int) )(forall ((S2_V1_!6079 Int) )(forall ((S2_V1_!6089 Int) )(forall ((S2_V1_!6106 Int) )(forall ((S2_V1_!6111 Int) )(forall ((S1_V4_!6078 Int) )(forall ((S1_V4_!6088 Int) )(forall ((S1_V4_!6099 Int) )(forall ((S1_V4_!6104 Int) )(forall ((S2_V2_!6081 Int) )(forall ((S2_V2_!6091 Int) )(forall ((S2_V2_!6108 Int) )(forall ((S2_V2_!6113 Int) )(forall ((S2_V3_!6080 Int) )(forall ((S2_V3_!6090 Int) )(forall ((S2_V3_!6107 Int) )(forall ((S2_V3_!6112 Int) )(let (($x1003 (= (ite MW_S2_V4 S2_V4_!6093 (ite MW_S1_V4 S1_V4_!6088 (ite MW_S2_V4 S2_V4_!6083 (ite MW_S1_V4 S1_V4_!6078 V4_0)))) (ite MW_S2_V4 S2_V4_!6115 (ite MW_S1_V4 S1_V4_!6104 V4_0)))))
 (let (($x5396 (= (ite MW_S2_V5 S2_V5_!6092 (ite MW_S1_V5 S1_V5_!6087 (ite MW_S2_V5 S2_V5_!6082 (ite MW_S1_V5 S1_V5_!6077 V5_0)))) (ite MW_S2_V5 S2_V5_!6114 (ite MW_S1_V5 S1_V5_!6103 V5_0)))))
 (let ((?x254 (ite MW_S1_V2 S1_V2_!6102 V2_0)))
 (let ((?x1443 (ite MW_S2_V2 S2_V2_!6113 ?x254)))
 (let ((?x1416 (ite MW_S1_V2 S1_V2_!6076 V2_0)))
 (let ((?x5127 (ite MW_S2_V2 S2_V2_!6081 ?x1416)))
 (let ((?x5963 (ite MW_S1_V2 S1_V2_!6086 ?x5127)))
 (let ((?x5989 (ite MW_S2_V2 S2_V2_!6091 ?x5963)))
 (let (($x106 (= (ite MW_S2_V3 S2_V3_!6090 (ite MW_S1_V3 S1_V3_!6085 (ite MW_S2_V3 S2_V3_!6080 (ite MW_S1_V3 S1_V3_!6075 V3_0)))) (ite MW_S2_V3 S2_V3_!6112 (ite MW_S1_V3 S1_V3_!6101 V3_0)))))
 (let ((?x2206 (ite MW_S2_V1 S2_V1_!6106 E1_!6105)))
 (let ((?x1297 (+ 1 ?x2206)))
 (let ((?x1657 (ite MW_S2_V1 S2_V1_!6111 ?x1297)))
 (let ((?x3725 (ite MW_S1_V1 S1_V1_!6074 E1_!6073)))
 (let ((?x2644 (ite MW_S2_V1 S2_V1_!6079 ?x3725)))
 (let ((?x1286 (+ 1 ?x2644)))
 (let ((?x2388 (ite MW_S1_V1 S1_V1_!6084 ?x1286)))
 (let ((?x3519 (ite MW_S2_V1 S2_V1_!6089 ?x2388)))
 (let (($x348 (>= (ite MW_S1_V1 S1_V1_!6100 (+ 1 (ite MW_S1_V1 S1_V1_!6095 E1_!6094))) (+ (- 1) ?x254))))
 (let (($x1783 (and (not (<= V2_0 E1_!6073)) (not (<= ?x5127 ?x1286)) (>= ?x3519 (+ (- 1) ?x5989)) (not (<= V2_0 E1_!6094)) (not (<= (ite MW_S1_V2 S1_V2_!6097 V2_0) (+ 1 (ite MW_S1_V1 S1_V1_!6095 E1_!6094)))) $x348 (not (<= ?x254 E1_!6105)) (not (<= (ite MW_S2_V2 S2_V2_!6108 ?x254) ?x1297)) (>= ?x1657 (+ (- 1) ?x1443)))))
 (let (($x2873 (= S2_V3_!6112 S2_V3_!6090)))
 (let ((?x1504 (ite MW_S1_V4 S1_V4_!6078 V4_0)))
 (let ((?x2942 (ite MW_S2_V4 S2_V4_!6083 ?x1504)))
 (let ((?x3241 (ite MW_S1_V4 S1_V4_!6088 ?x2942)))
 (let ((?x6051 (ite MW_S1_V4 S1_V4_!6104 V4_0)))
 (let ((?x1524 (ite MW_S2_V4 S2_V4_!6110 ?x6051)))
 (let (($x3411 (not R_S2_V4)))
 (let ((?x4348 (ite MW_S1_V5 S1_V5_!6077 V5_0)))
 (let ((?x6035 (ite MW_S2_V5 S2_V5_!6082 ?x4348)))
 (let ((?x2252 (ite MW_S1_V5 S1_V5_!6087 ?x6035)))
 (let ((?x5969 (ite MW_S1_V5 S1_V5_!6103 V5_0)))
 (let ((?x5063 (ite MW_S2_V5 S2_V5_!6109 ?x5969)))
 (let (($x2427 (not R_S2_V5)))
 (let ((?x3461 (ite MW_S1_V3 S1_V3_!6075 V3_0)))
 (let ((?x340 (ite MW_S2_V3 S2_V3_!6080 ?x3461)))
 (let ((?x4816 (ite MW_S1_V3 S1_V3_!6085 ?x340)))
 (let ((?x3151 (ite MW_S1_V3 S1_V3_!6101 V3_0)))
 (let ((?x675 (ite MW_S2_V3 S2_V3_!6107 ?x3151)))
 (let (($x1768 (not R_S2_V3)))
 (let (($x5814 (and (or (not R_S2_V1) (= ?x2206 (+ (- 1) ?x2388))) (or $x1768 (= ?x675 ?x4816)) (or (not R_S2_V2) (= (ite MW_S2_V2 S2_V2_!6108 ?x254) ?x5963)) (or $x2427 (= ?x5063 ?x2252)) (or $x3411 (= ?x1524 ?x3241)))))
 (let (($x5326 (not $x5814)))
 (let (($x5097 (= S2_V3_!6112 S2_V3_!6080)))
 (let (($x3958 (and (or (not R_S2_V1) (= ?x2206 (+ (- 1) ?x3725))) (or $x1768 (= ?x675 ?x3461)) (or (not R_S2_V2) (= (ite MW_S2_V2 S2_V2_!6108 ?x254) ?x1416)) (or $x2427 (= ?x5063 ?x4348)) (or $x3411 (= ?x1524 ?x1504)))))
 (let (($x5120 (not $x3958)))
 (let (($x562 (= S2_V3_!6107 S2_V3_!6112)))
 (let (($x646 (and (or (not R_S2_V1) (= E1_!6105 ?x1297)) (or $x1768 (= ?x3151 ?x675)) (or (not R_S2_V2) (= ?x254 (ite MW_S2_V2 S2_V2_!6108 ?x254))) (or $x2427 (= ?x5969 ?x5063)) (or $x3411 (= ?x6051 ?x1524)))))
 (let (($x338 (= S2_V3_!6107 S2_V3_!6090)))
 (let (($x2594 (and (or (not R_S2_V1) (= E1_!6105 ?x2388)) (or $x1768 (= ?x3151 ?x4816)) (or (not R_S2_V2) (= ?x254 ?x5963)) (or $x2427 (= ?x5969 ?x2252)) (or $x3411 (= ?x6051 ?x3241)))))
 (let (($x128 (not $x2594)))
 (let (($x6003 (= S2_V3_!6107 S2_V3_!6080)))
 (let (($x5995 (and (or (not R_S2_V1) (= E1_!6105 ?x3725)) (or $x1768 (= ?x3151 ?x3461)) (or (not R_S2_V2) (= ?x254 ?x1416)) (or $x2427 (= ?x5969 ?x4348)) (or $x3411 (= ?x6051 ?x1504)))))
 (let (($x3453 (= S2_V3_!6090 S2_V3_!6080)))
 (let (($x4033 (and (or (not R_S2_V1) (= ?x2388 ?x3725)) (or $x1768 (= ?x4816 ?x3461)) (or (not R_S2_V2) (= ?x5963 ?x1416)) (or $x2427 (= ?x2252 ?x4348)) (or $x3411 (= ?x3241 ?x1504)))))
 (let (($x3715 (not $x4033)))
 (let (($x2515 (= S2_V2_!6113 S2_V2_!6108)))
 (let (($x822 (and (or (not R_S2_V1) (= ?x2206 (+ (- 1) E1_!6105))) (or $x1768 (= ?x675 ?x3151)) (or (not R_S2_V2) (= (ite MW_S2_V2 S2_V2_!6108 ?x254) ?x254)) (or $x2427 (= ?x5063 ?x5969)) (or $x3411 (= ?x1524 ?x6051)))))
 (let (($x1193 (not $x822)))
 (let (($x1153 (= S2_V2_!6091 S2_V2_!6108)))
 (let (($x2320 (and (or (not R_S2_V1) (= ?x2388 E1_!6105)) (or $x1768 (= ?x4816 ?x3151)) (or (not R_S2_V2) (= ?x5963 ?x254)) (or $x2427 (= ?x2252 ?x5969)) (or $x3411 (= ?x3241 ?x6051)))))
 (let (($x993 (not $x2320)))
 (let (($x5135 (= S2_V2_!6081 S2_V2_!6113)))
 (let (($x3059 (and (or (not R_S2_V1) (= ?x3725 ?x1297)) (or $x1768 (= ?x3461 ?x675)) (or (not R_S2_V2) (= ?x1416 (ite MW_S2_V2 S2_V2_!6108 ?x254))) (or $x2427 (= ?x4348 ?x5063)) (or $x3411 (= ?x1504 ?x1524)))))
 (let (($x1346 (not $x3059)))
 (let (($x4308 (= S2_V2_!6081 S2_V2_!6108)))
 (let (($x2297 (and (or (not R_S2_V1) (= ?x3725 E1_!6105)) (or $x1768 (= ?x3461 ?x3151)) (or (not R_S2_V2) (= ?x1416 ?x254)) (or $x2427 (= ?x4348 ?x5969)) (or $x3411 (= ?x1504 ?x6051)))))
 (let (($x1105 (not $x2297)))
 (let (($x4398 (= S2_V2_!6081 S2_V2_!6091)))
 (let (($x875 (and (or (not R_S2_V1) (= ?x3725 ?x2388)) (or $x1768 (= ?x3461 ?x4816)) (or (not R_S2_V2) (= ?x1416 ?x5963)) (or $x2427 (= ?x4348 ?x2252)) (or $x3411 (= ?x1504 ?x3241)))))
 (let (($x4928 (not $x875)))
 (let (($x5917 (= S1_V4_!6104 S1_V4_!6088)))
 (let (($x3511 (and (or (not R_S1_V1) (= (ite MW_S1_V1 S1_V1_!6095 E1_!6094) ?x2644)) (or (not R_S1_V3) (= (ite MW_S1_V3 S1_V3_!6096 V3_0) ?x340)) (or (not R_S1_V2) (= (ite MW_S1_V2 S1_V2_!6097 V2_0) ?x5127)) (or (not R_S1_V5) (= (ite MW_S1_V5 S1_V5_!6098 V5_0) ?x6035)) (or (not R_S1_V4) (= (ite MW_S1_V4 S1_V4_!6099 V4_0) ?x2942)))))
 (let (($x740 (not $x3511)))
 (let (($x3109 (not R_S1_V4)))
 (let (($x823 (or $x3109 (= (ite MW_S1_V4 S1_V4_!6099 V4_0) V4_0))))
 (let (($x1626 (not R_S1_V5)))
 (let (($x3975 (or $x1626 (= (ite MW_S1_V5 S1_V5_!6098 V5_0) V5_0))))
 (let (($x4263 (not R_S1_V2)))
 (let (($x734 (or $x4263 (= (ite MW_S1_V2 S1_V2_!6097 V2_0) V2_0))))
 (let (($x3742 (not R_S1_V3)))
 (let (($x5652 (or $x3742 (= (ite MW_S1_V3 S1_V3_!6096 V3_0) V3_0))))
 (let (($x4315 (and (or (not R_S1_V1) (= (ite MW_S1_V1 S1_V1_!6095 E1_!6094) (+ (- 1) E1_!6073))) $x5652 $x734 $x3975 $x823)))
 (let (($x3263 (not $x4315)))
 (let (($x5493 (or $x3109 (= V4_0 (ite MW_S1_V4 S1_V4_!6099 V4_0)))))
 (let (($x505 (or $x1626 (= V5_0 (ite MW_S1_V5 S1_V5_!6098 V5_0)))))
 (let (($x2338 (or $x4263 (= V2_0 (ite MW_S1_V2 S1_V2_!6097 V2_0)))))
 (let (($x3262 (or $x3742 (= V3_0 (ite MW_S1_V3 S1_V3_!6096 V3_0)))))
 (let (($x2996 (and (or (not R_S1_V1) (= E1_!6094 (+ 1 (ite MW_S1_V1 S1_V1_!6095 E1_!6094)))) $x3262 $x2338 $x505 $x5493)))
 (let (($x1932 (not $x2996)))
 (let (($x577 (= S1_V4_!6099 S1_V4_!6088)))
 (let (($x2447 (or $x3109 (= V4_0 ?x2942))))
 (let (($x4811 (or $x1626 (= V5_0 ?x6035))))
 (let (($x6017 (or $x4263 (= V2_0 ?x5127))))
 (let (($x40 (or $x3742 (= V3_0 ?x340))))
 (let (($x2441 (not (and (or (not R_S1_V1) (= E1_!6094 ?x1286)) $x40 $x6017 $x4811 $x2447))))
 (let (($x1666 (or $x3109 (= ?x2942 V4_0))))
 (let (($x44 (or $x1626 (= ?x6035 V5_0))))
 (let (($x3091 (or $x4263 (= ?x5127 V2_0))))
 (let (($x433 (or $x3742 (= ?x340 V3_0))))
 (let (($x259 (and (or (not R_S1_V1) (= ?x2644 (+ (- 1) E1_!6073))) $x433 $x3091 $x44 $x1666)))
 (let (($x2756 (not $x259)))
 (let (($x3284 (= S2_V1_!6089 S2_V1_!6111)))
 (let (($x2751 (and (or (not R_S2_V1) (= ?x2388 ?x1297)) (or $x1768 (= ?x4816 ?x675)) (or (not R_S2_V2) (= ?x5963 (ite MW_S2_V2 S2_V2_!6108 ?x254))) (or $x2427 (= ?x2252 ?x5063)) (or $x3411 (= ?x3241 ?x1524)))))
 (let (($x3502 (not $x2751)))
 (let (($x2010 (= S1_V5_!6103 S1_V5_!6098)))
 (let (($x584 (and (or (not R_S1_V1) (= (ite MW_S1_V1 S1_V1_!6095 E1_!6094) (+ (- 1) E1_!6094))) $x5652 $x734 $x3975 $x823)))
 (let (($x2984 (not $x584)))
 (let (($x5837 (or (not (and (or (not R_S1_V1) (= E1_!6073 ?x1286)) $x40 $x6017 $x4811 $x2447)) (= S1_V5_!6077 S1_V5_!6087))))
 (let (($x4918 (and (or (not R_E1_V2) (= ?x254 V2_0)) (or (not R_E1_V5) (= ?x5969 V5_0)) (or (not R_E1_V4) (= ?x6051 V4_0)))))
 (let (($x2649 (= E1_!6073 E1_!6105)))
 (let (($x4698 (and (or (not R_E1_V2) (= V2_0 ?x254)) (or (not R_E1_V5) (= V5_0 ?x5969)) (or (not R_E1_V4) (= V4_0 ?x6051)))))
 (let (($x3798 (= E1_!6073 E1_!6094)))
 (let (($x3368 (and (or (not R_S1_V1) (= ?x2644 (ite MW_S1_V1 S1_V1_!6095 E1_!6094))) (or $x3742 (= ?x340 (ite MW_S1_V3 S1_V3_!6096 V3_0))) (or $x4263 (= ?x5127 (ite MW_S1_V2 S1_V2_!6097 V2_0))) (or $x1626 (= ?x6035 (ite MW_S1_V5 S1_V5_!6098 V5_0))) (or $x3109 (= ?x2942 (ite MW_S1_V4 S1_V4_!6099 V4_0))))))
 (let (($x6060 (not $x3368)))
 (let (($x3924 (and (or (not R_S1_V1) (= ?x2644 (+ (- 1) E1_!6094))) $x433 $x3091 $x44 $x1666)))
 (let (($x2170 (not $x3924)))
 (let (($x2804 (and (or (not R_S1_V1) (= E1_!6073 (+ 1 (ite MW_S1_V1 S1_V1_!6095 E1_!6094)))) $x3262 $x2338 $x505 $x5493)))
 (let (($x2957 (not $x2804)))
 (let (($x5121 (and (or $x2957 (= S1_V1_!6074 S1_V1_!6100)) (or $x2756 (= S1_V1_!6084 S1_V1_!6074)) (or $x2170 (= S1_V1_!6084 S1_V1_!6095)) (or $x6060 (= S1_V1_!6084 S1_V1_!6100)) (or (not (or (not R_S1_V1) (= E1_!6094 E1_!6073))) (= S1_V1_!6095 S1_V1_!6074)) (or $x1932 (= S1_V1_!6095 S1_V1_!6100)) (or $x1105 (= S2_V5_!6082 S2_V5_!6109)) (or $x1346 (= S2_V5_!6082 S2_V5_!6114)) (or $x3715 (= S2_V5_!6092 S2_V5_!6082)) (or $x993 (= S2_V5_!6092 S2_V5_!6109)) (or $x3502 (= S2_V5_!6092 S2_V5_!6114)) (or $x1193 (= S2_V5_!6114 S2_V5_!6109)) (or (not (or (not R_S1_V1) $x3798)) (= S1_V3_!6075 S1_V3_!6096)) (or $x2756 (= S1_V3_!6085 S1_V3_!6075)) (or $x2170 (= S1_V3_!6085 S1_V3_!6096)) (or $x6060 (= S1_V3_!6085 S1_V3_!6101)) (or $x3263 (= S1_V3_!6101 S1_V3_!6075)) (or $x2984 (= S1_V3_!6101 S1_V3_!6096)) (or $x2957 (= S1_V2_!6076 S1_V2_!6102)) (or $x2756 (= S1_V2_!6086 S1_V2_!6076)) (or $x2170 (= S1_V2_!6086 S1_V2_!6097)) (or $x6060 (= S1_V2_!6086 S1_V2_!6102)) (or (not (or (not R_S1_V1) (= E1_!6094 E1_!6073))) (= S1_V2_!6097 S1_V2_!6076)) (or $x1932 (= S1_V2_!6097 S1_V2_!6102)) $x3798 (or (not $x4698) $x2649) (or (not $x4918) (= E1_!6105 E1_!6094)) (or $x4928 (= S2_V4_!6083 S2_V4_!6093)) (or $x1105 (= S2_V4_!6083 S2_V4_!6110)) (or $x128 (= S2_V4_!6110 S2_V4_!6093)) (or $x5120 (= S2_V4_!6115 S2_V4_!6083)) (or $x5326 (= S2_V4_!6115 S2_V4_!6093)) (or $x1193 (= S2_V4_!6115 S2_V4_!6110)) $x5837 (or (not (or (not R_S1_V1) $x3798)) (= S1_V5_!6077 S1_V5_!6098)) (or $x2441 (= S1_V5_!6098 S1_V5_!6087)) (or $x3263 (= S1_V5_!6103 S1_V5_!6077)) (or $x740 (= S1_V5_!6103 S1_V5_!6087)) (or $x2984 $x2010) (or $x4928 (= S2_V1_!6079 S2_V1_!6089)) (or $x1105 (= S2_V1_!6079 S2_V1_!6106)) (or $x1346 (= S2_V1_!6079 S2_V1_!6111)) (or $x993 (= S2_V1_!6089 S2_V1_!6106)) (or $x3502 $x3284) (or $x1193 (= S2_V1_!6111 S2_V1_!6106)) (or $x2756 (= S1_V4_!6088 S1_V4_!6078)) (or (not (or (not R_S1_V1) (= E1_!6094 E1_!6073))) (= S1_V4_!6099 S1_V4_!6078)) (or $x2441 $x577) (or $x1932 (= S1_V4_!6099 S1_V4_!6104)) (or $x3263 (= S1_V4_!6104 S1_V4_!6078)) (or $x740 $x5917) (or $x4928 $x4398) (or $x1105 $x4308) (or $x1346 $x5135) (or $x993 $x1153) (or $x5326 (= S2_V2_!6113 S2_V2_!6091)) (or $x1193 $x2515) (or $x3715 $x3453) (or (not $x5995) $x6003) (or $x128 $x338) (or (not $x646) $x562) (or $x5120 $x5097) (or $x5326 $x2873) (not MW_S1_V1) (not MW_S1_V2) (or (not MW_S1_V5) W_S1_V5) (or (not MW_S1_V4) W_S1_V4) (or (not MW_S2_V1) W_S2_V1) (or (not MW_S2_V3) W_S2_V3) (or (not MW_S2_V2) W_S2_V2) (or (not MW_S2_V5) W_S2_V5))))
 (or (not $x5121) (not $x1783) (and (= ?x3519 ?x1657) $x106 (= ?x5989 ?x1443) $x5396 $x1003))))))))))))))))))))))))))))))))))))))))))))))))))))))))))))))))))))))))))))))))))))))))))))))))))))))))))))))))))))))))
 )
 )
 )
 )
 )
 )
 )
 )
 )
 )
 )
 )
 )
 )
 )
 )
 )
 )
 )
 )
 )
 )
 )
 )
 )
 )
 )
 )
 )
 )
 )
 )
 )
 )
 )
 )
 )
 )
 )
 )
 )
 )
 )
 )
 )
 )
 )
 )
 )
 )
 )
 )
 )
 )
 )
 )
 ))
 (let (($x4278 (not (or (and W_S2_V2 R_E1_V2) (and W_S2_V5 R_E1_V5) R_E1_V4))))
 (let (($x5630 (= DISJ_W_S2_R_E1 $x4278)))
 (let (($x4083 (and W_S2_V5 R_S2_V5)))
 (let (($x2034 (and W_S2_V2 R_S2_V2)))
 (let (($x821 (and W_S2_V3 R_S2_V3)))
 (let (($x1311 (and W_S2_V1 R_S2_V1)))
 (let (($x1110 (= DISJ_W_S2_R_S2 (not (or $x1311 $x821 $x2034 $x4083 R_S2_V4)))))
 (let (($x126 (and W_S2_V5 R_S1_V5)))
 (let (($x1605 (and W_S2_V2 R_S1_V2)))
 (let (($x671 (and W_S2_V3 R_S1_V3)))
 (let (($x2813 (and W_S2_V1 R_S1_V1)))
 (let (($x3544 (= DISJ_W_S2_R_S1 (not (or $x2813 $x671 $x1605 $x126 R_S1_V4)))))
 (let (($x1583 (= DISJ_W_S1_W_S2 (not (or W_S2_V3 (and W_S1_V5 W_S2_V5) W_S1_V4)))))
 (let (($x4838 (not R_E1_V3)))
 (let (($x5826 (not (or R_S2_V3 (and W_S1_V5 R_S2_V5) (and W_S1_V4 R_S2_V4)))))
 (let (($x4317 (= DISJ_W_S1_R_S2 $x5826)))
 (let (($x5157 (not (or R_S1_V3 (and W_S1_V5 R_S1_V5) (and W_S1_V4 R_S1_V4)))))
 (let (($x950 (= DISJ_W_S1_R_S1 $x5157)))
 (let (($x1350 (not W_S2_V5)))
 (let (($x2895 (not W_S2_V2)))
 (let (($x1768 (not R_S2_V3)))
 (let (($x2466 (not R_S2_V1)))
 (let (($x2811 (and $x2466 $x1768 $x2895 $x1350 DISJ_W_S2_R_S1)))
 (let (($x5815 (not W_S2_V3)))
 (let (($x2427 (not R_S2_V5)))
 (let (($x737 (and $x2466 $x2427 $x2895 $x5815 DISJ_W_S2_R_S1)))
 (let (($x3420 (and $x2466 $x2895 $x1350 $x5815 DISJ_W_S2_R_S1)))
 (let (($x762 (and $x2466 $x1768 $x2427 $x2895 DISJ_W_S2_R_S1)))
 (let (($x3411 (not R_S2_V4)))
 (let (($x6053 (and $x2466 $x3411 $x2895 $x1350 DISJ_W_S2_R_S1)))
 (let (($x3373 (and $x2466 $x2427 $x3411 $x2895 DISJ_W_S2_R_S1)))
 (let (($x164 (and $x2466 $x3411 $x2895 $x5815 DISJ_W_S2_R_S1)))
 (let (($x989 (and $x2466 $x1768 $x3411 $x2895 DISJ_W_S2_R_S1)))
 (let (($x3377 (not W_S1_V4)))
 (let (($x315 (and $x2427 $x3377 $x5815 DISJ_W_S2_R_S1)))
 (let (($x3180 (and $x2427 $x3411 $x5815 DISJ_W_S2_R_S1)))
 (let (($x2248 (and $x3411 (not W_S1_V5) $x5815 DISJ_W_S2_R_S1)))
 (let (($x6063 (and $x3411 $x1350 $x5815 DISJ_W_S2_R_S1)))
 (let (($x1178 (and DISJ_W_S1_W_S2 DISJ_W_S2_R_S1)))
 (let (($x3266 (and $x1768 $x3377 $x1350 DISJ_W_S2_R_S1)))
 (let (($x5980 (and (not W_S2_V1) $x2895)))
 (let (($x4575 (and $x1768 $x3411 $x1350 DISJ_W_S2_R_S1)))
 (let (($x2392 (and DISJ_W_S1_R_S2 DISJ_W_S2_R_S1)))
 (let (($x5784 (and $x2895 DISJ_W_S2_R_S2)))
 (let (($x5949 (or $x4012 $x5784 $x2392 $x4575 $x5980 $x3266 $x1178 $x6063 $x2248 $x3180 $x315 $x989 $x164 $x3373 $x6053 $x762 $x3420 $x737 $x2811)))
 (let (($x3651 (not R_S1_V1)))
 (let (($x4833 (and $x3651 DISJ_W_S1_R_S1)))
 (let (($x3473 (and $x2895 DISJ_W_S2_R_S1 DISJ_W_S1_R_S1)))
 (let (($x3374 (or $x3473 $x5980 $x4833)))
 (let (($x2563 (not W_S1_V2)))
 (let (($x1438 (not W_S1_V1)))
 (let (($x2185 (not R_E1_V1)))
 (let (($x4125 (and DISJ_W_S1_R_E1 $x2185 $x1438 $x2563 $x3374 $x5949 W_S1_V3 W_S2_V4 $x950 $x4317 $x4838 $x1583 $x3544 $x1110 $x5630 $x3628 $x5084 $x109)))
 (and $x4125 $x2696))))))))))))))))))))))))))))))))))))))))))))))))))))))))))))
(check-sat)
